# Input for water pentamer Simulation

1 10          # Line 1: Simulation Mode & Number of Config
              # 1: Annealing; 0: Random configurations
7             # Line 2: Simulation Cube Length (Angstroms)

2             # Line 3: Annealing Quenching route
              # (1: Linear, 2: Geometrical).

100.0  10.0  50   # Line 4: Linear Quenching Parameters

500.0   5.0  100  # Line 5: Geometric Quenching Parameters

3000  50      # Line 6: Maximum Monte Carlo Cycles per T and floor value

1.0 1.0       # Line 7: Maximum Displacement (A) & Rotation (radians)

0 60          # Line 8: Conformational sampling (%)
              # & Maximum dihedral rotation (degrees)

1 g09         # Line 9: QM Program Index & alias
              # (1: Gaussian, 2: ORCA, 3: for other, etc.)

pm3 zdo       # Line 10: Hamiltonian & Basis Set
              # (e.g., pm3, hf)(e.g., 6-31G*, STO-3G)

1 8           # Line 11: nprocs (QM calculations and ASCEC evaluation)

0 1           # Line 12: Charge & Spin Multiplicity

5             # Line 13: Number of Molecules (nmo)

# Lines below: Molecule Definition
# (Num Atoms, Label, followed by xyz coordinates, separated by *)

*
3
water1
O   0.000000  0.000000  0.000000
H   0.757000  0.586000  0.000000
H  -0.757000  0.586000  0.000000
*
3
water2
O   0.000000  0.000000  0.000000
H   0.757000  0.586000  0.000000
H  -0.757000  0.586000  0.000000
*
3
water3
O   0.000000  0.000000  0.000000
H   0.757000  0.586000  0.000000
H  -0.757000  0.586000  0.000000
*
3
water4
O   0.000000  0.000000  0.000000
H   0.757000  0.586000  0.000000
H  -0.757000  0.586000  0.000000
*
3
water5
O   0.000000  0.000000  0.000000
H   0.757000  0.586000  0.000000
H  -0.757000  0.586000  0.000000
*

# Protocol
# (annealing, (pre)optimization, clustering, separated by "," or ".")

.asc,
r2 --box10,
opt input1,
similarity --th=2 -j4,
ref input2,
similarity --th=2 -j4

#orca input1
#name
#rescue(Native-GFN2-xTB/num)
! Native-GFN2-xTB
! Opt NumFreq
%pal
  nprocs 4
end
%geom
  maxiter 50
end
* xyz 0 1
#
*

#orca input2
#name
#rescue(HF-3c/freq)
! BP86 def2-SVP
! Opt Freq
%pal
  nprocs 4
end
%geom
  maxiter 10
end
* xyz 0 1
#
*
