! Configuration: 1 | E = -0.50363977 a.u. | result_274773

%nprocshared=8
%mem=16GB
# wB97XD/6-31+G(d) Opt=Cartesian Freq DensityFit iop(1/152=2000,1/6=2000)

Water Hexamer

0 1
O       4.280747      8.268249      3.632488
H       4.131943      8.639986      4.514877
H       5.018855      8.788302      3.280807
O       8.547926      5.213360      8.005357
H       9.492328      5.427700      8.038560
H       8.309354      5.062655      8.932347
O       7.118694      4.807098      4.947975
H       7.913173      5.059897      4.454176
H       6.726554      4.099748      4.414289
O       6.144381      3.755759      2.433802
H       5.731339      3.894706      1.568336
H       6.028969      4.604314      2.887205
O       1.324901      3.904245      6.809219
H       0.481191      4.213238      6.446429
H       1.597005      3.199991      6.201828
O       0.336352      4.979311      3.845738
H       0.451982      4.331481      3.134481
H      -0.621485      5.122099      3.878882

