# Configuration: 1 | E = -71.61760217 a.u. | result_115439

! Opt GFN2-xTB TightSCF Numfreq PAL8

%geom
  maxiter 5000
end

* xyz 0 1
O       7.521687      8.123473      2.987348
H       7.729738      7.604909      3.779022
H       7.084031      7.488924      2.400199
O       0.526246      0.925818      5.438361
H       0.915322      0.038385      5.433532
H      -0.309119      0.812574      5.916148
O       1.052140      6.843753      0.081206
H       0.504656      7.365603      0.686907
H       1.085506      5.966930      0.492311
O       7.078516      2.412850      4.996406
H       7.213421      1.746227      4.306221
H       7.750571      3.084826      4.807385
O       8.679125      6.477132      1.392050
H       9.330049      5.936454      1.864179
H       7.941899      6.554097      2.016159
O       0.620142      6.994058      8.525985
H      -0.326811      7.057503      8.330549
H       0.948949      6.347461      7.883540
*
